(set-logic QF_UF)
(declare-fun G101 () Bool)
(declare-fun G104 () Bool)
(declare-fun G107 () Bool)
(declare-fun G110 () Bool)
(declare-fun G113 () Bool)
(declare-fun G116 () Bool)
(declare-fun G119 () Bool)
(declare-fun G122 () Bool)
(declare-fun G125 () Bool)
(declare-fun G128 () Bool)
(declare-fun G131 () Bool)
(declare-fun G134 () Bool)
(declare-fun G137 () Bool)
(declare-fun G140 () Bool)
(declare-fun G143 () Bool)
(declare-fun G146 () Bool)
(declare-fun G210 () Bool)
(declare-fun G214 () Bool)
(declare-fun G217 () Bool)
(declare-fun G221 () Bool)
(declare-fun G224 () Bool)
(declare-fun G227 () Bool)
(declare-fun G234 () Bool)
(declare-fun G237 () Bool)
(declare-fun G469 () Bool)
(declare-fun G472 () Bool)
(declare-fun G475 () Bool)
(declare-fun G478 () Bool)
(declare-fun G898 () Bool)
(declare-fun G900 () Bool)
(declare-fun G902 () Bool)
(declare-fun G952 () Bool)
(declare-fun G953 () Bool)
(assert (let ((.def_0 (not G952))) (let ((.def_1 (and .def_0 G953))) (let ((.def_2 (not .def_1))) (let ((.def_3 (not G101))) (let ((.def_4 (not G237))) (let ((.def_5 (not G953))) (let ((.def_6 (and .def_5 .def_4 G210))) (let ((.def_7 (not .def_6))) (let ((.def_8 (and .def_7 .def_3))) (let ((.def_9 (not .def_8))) (let ((.def_10 (and .def_6 G101))) (let ((.def_11 (not .def_10))) (let ((.def_12 (and .def_11 .def_9))) (let ((.def_13 (not G140))) (let ((.def_14 (and .def_13 G110))) (let ((.def_15 (not .def_14))) (let ((.def_16 (not G110))) (let ((.def_17 (and G140 .def_16))) (let ((.def_18 (not .def_17))) (let ((.def_19 (and .def_18 .def_15))) (let ((.def_20 (and .def_5 G227))) (let ((.def_21 (and .def_20 .def_19))) (let ((.def_22 (not .def_21))) (let ((.def_23 (not .def_19))) (let ((.def_24 (not .def_20))) (let ((.def_25 (and .def_24 .def_23))) (let ((.def_26 (not .def_25))) (let ((.def_27 (and .def_26 .def_22))) (let ((.def_28 (not G107))) (let ((.def_29 (and G104 .def_28))) (let ((.def_30 (not .def_29))) (let ((.def_31 (not G104))) (let ((.def_32 (and .def_31 G107))) (let ((.def_33 (not .def_32))) (let ((.def_34 (and .def_33 .def_30))) (let ((.def_35 (and .def_34 .def_3))) (let ((.def_36 (not .def_35))) (let ((.def_37 (not .def_34))) (let ((.def_38 (and .def_37 G101))) (let ((.def_39 (not .def_38))) (let ((.def_40 (and .def_39 .def_36))) (let ((.def_41 (not .def_40))) (let ((.def_42 (not G146))) (let ((.def_43 (and .def_42 G143))) (let ((.def_44 (not .def_43))) (let ((.def_45 (not G143))) (let ((.def_46 (and G146 .def_45))) (let ((.def_47 (not .def_46))) (let ((.def_48 (and .def_47 .def_44))) (let ((.def_49 (not G128))) (let ((.def_50 (and .def_49 .def_48))) (let ((.def_51 (not .def_50))) (let ((.def_52 (not .def_48))) (let ((.def_53 (and G128 .def_52))) (let ((.def_54 (not .def_53))) (let ((.def_55 (and .def_54 .def_51))) (let ((.def_56 (not .def_55))) (let ((.def_57 (and .def_56 .def_41))) (let ((.def_58 (not .def_57))) (let ((.def_59 (and .def_40 .def_55))) (let ((.def_60 (not .def_59))) (let ((.def_61 (and .def_60 .def_58))) (let ((.def_62 (not .def_61))) (let ((.def_63 (not G137))) (let ((.def_64 (and .def_63 G134))) (let ((.def_65 (not .def_64))) (let ((.def_66 (not G134))) (let ((.def_67 (and .def_66 G137))) (let ((.def_68 (not .def_67))) (let ((.def_69 (and .def_68 .def_65))) (let ((.def_70 (not G131))) (let ((.def_71 (and .def_70 .def_69))) (let ((.def_72 (not .def_71))) (let ((.def_73 (not .def_69))) (let ((.def_74 (and .def_73 G131))) (let ((.def_75 (not .def_74))) (let ((.def_76 (and .def_75 .def_72))) (let ((.def_77 (not .def_76))) (let ((.def_78 (and .def_77 .def_62))) (let ((.def_79 (not .def_78))) (let ((.def_80 (and .def_76 .def_61))) (let ((.def_81 (not .def_80))) (let ((.def_82 (and .def_81 .def_79))) (let ((.def_83 (and .def_82 .def_27))) (let ((.def_84 (not .def_83))) (let ((.def_85 (not .def_27))) (let ((.def_86 (not .def_82))) (let ((.def_87 (and .def_86 .def_85))) (let ((.def_88 (not .def_87))) (let ((.def_89 (and .def_88 .def_84))) (let ((.def_90 (not .def_89))) (let ((.def_91 (not G902))) (let ((.def_92 (and .def_91 .def_90))) (let ((.def_93 (not .def_92))) (let ((.def_94 (and .def_93 G469))) (let ((.def_95 (not .def_94))) (let ((.def_96 (not G469))) (let ((.def_97 (and .def_96 .def_92))) (let ((.def_98 (not .def_97))) (let ((.def_99 (and .def_98 .def_95))) (let ((.def_100 (and .def_91 G234))) (let ((.def_101 (not .def_100))) (let ((.def_102 (and G221 .def_101))) (let ((.def_103 (not .def_102))) (let ((.def_104 (and .def_103 .def_99))) (let ((.def_105 (and .def_91 .def_4))) (let ((.def_106 (not .def_105))) (let ((.def_107 (and G214 .def_106))) (let ((.def_108 (not .def_107))) (let ((.def_109 (not G119))) (let ((.def_110 (and G116 .def_109))) (let ((.def_111 (not .def_110))) (let ((.def_112 (not G116))) (let ((.def_113 (and G119 .def_112))) (let ((.def_114 (not .def_113))) (let ((.def_115 (and .def_114 .def_111))) (let ((.def_116 (not .def_115))) (let ((.def_117 (and G113 .def_116))) (let ((.def_118 (not .def_117))) (let ((.def_119 (not G113))) (let ((.def_120 (and .def_119 .def_115))) (let ((.def_121 (not .def_120))) (let ((.def_122 (and .def_121 .def_118))) (let ((.def_123 (and .def_28 G104))) (let ((.def_124 (not .def_123))) (let ((.def_125 (and G107 .def_31))) (let ((.def_126 (not .def_125))) (let ((.def_127 (and .def_126 .def_124))) (let ((.def_128 (and .def_127 .def_3))) (let ((.def_129 (not .def_128))) (let ((.def_130 (not .def_127))) (let ((.def_131 (and .def_130 G101))) (let ((.def_132 (not .def_131))) (let ((.def_133 (and .def_132 .def_129))) (let ((.def_134 (and .def_133 .def_122))) (let ((.def_135 (not .def_134))) (let ((.def_136 (not .def_133))) (let ((.def_137 (not .def_122))) (let ((.def_138 (and .def_137 .def_136))) (let ((.def_139 (not .def_138))) (let ((.def_140 (and .def_139 .def_135))) (let ((.def_141 (and .def_16 G122))) (let ((.def_142 (not .def_141))) (let ((.def_143 (not G122))) (let ((.def_144 (and G110 .def_143))) (let ((.def_145 (not .def_144))) (let ((.def_146 (and .def_145 .def_142))) (let ((.def_147 (and .def_146 .def_140))) (let ((.def_148 (not .def_147))) (let ((.def_149 (not .def_140))) (let ((.def_150 (not .def_146))) (let ((.def_151 (and .def_150 .def_149))) (let ((.def_152 (not .def_151))) (let ((.def_153 (and .def_152 .def_148))) (let ((.def_154 (not G125))) (let ((.def_155 (and .def_45 G146))) (let ((.def_156 (not .def_155))) (let ((.def_157 (and .def_44 .def_156))) (let ((.def_158 (not .def_157))) (let ((.def_159 (and G128 .def_158))) (let ((.def_160 (not .def_159))) (let ((.def_161 (and .def_157 .def_49))) (let ((.def_162 (not .def_161))) (let ((.def_163 (and .def_162 .def_160))) (let ((.def_164 (and .def_163 .def_154))) (let ((.def_165 (not .def_164))) (let ((.def_166 (not .def_163))) (let ((.def_167 (and .def_166 G125))) (let ((.def_168 (not .def_167))) (let ((.def_169 (and .def_168 .def_165))) (let ((.def_170 (and G224 .def_5))) (let ((.def_171 (and .def_170 .def_169))) (let ((.def_172 (not .def_171))) (let ((.def_173 (not .def_170))) (let ((.def_174 (not .def_169))) (let ((.def_175 (and .def_174 .def_173))) (let ((.def_176 (not .def_175))) (let ((.def_177 (and .def_176 .def_172))) (let ((.def_178 (and .def_177 .def_153))) (let ((.def_179 (not .def_178))) (let ((.def_180 (not .def_153))) (let ((.def_181 (not .def_177))) (let ((.def_182 (and .def_181 .def_180))) (let ((.def_183 (not .def_182))) (let ((.def_184 (and .def_183 .def_179))) (let ((.def_185 (and .def_184 .def_91))) (let ((.def_186 (not .def_185))) (let ((.def_187 (and .def_106 G210))) (let ((.def_188 (and .def_187 .def_186))) (let ((.def_189 (not .def_188))) (let ((.def_190 (not .def_187))) (let ((.def_191 (and .def_190 .def_185))) (let ((.def_192 (not .def_191))) (let ((.def_193 (and .def_192 .def_189))) (let ((.def_194 (not .def_193))) (let ((.def_195 (and .def_194 .def_108))) (let ((.def_196 (and G237 G234))) (let ((.def_197 (not .def_196))) (let ((.def_198 (not G898))) (let ((.def_199 (and .def_198 G953 .def_197 G902))) (let ((.def_200 (not .def_199))) (let ((.def_201 (and .def_197 .def_5 G952))) (let ((.def_202 (not .def_201))) (let ((.def_203 (and .def_202 .def_200))) (let ((.def_204 (not .def_203))) (let ((.def_205 (and G128 .def_109))) (let ((.def_206 (not .def_205))) (let ((.def_207 (and G119 .def_49))) (let ((.def_208 (not .def_207))) (let ((.def_209 (and .def_208 .def_206))) (let ((.def_210 (not .def_209))) (let ((.def_211 (and .def_210 G110))) (let ((.def_212 (not .def_211))) (let ((.def_213 (and .def_16 .def_209))) (let ((.def_214 (not .def_213))) (let ((.def_215 (and .def_214 .def_212))) (let ((.def_216 (and .def_154 G140))) (let ((.def_217 (not .def_216))) (let ((.def_218 (and .def_13 G125))) (let ((.def_219 (not .def_218))) (let ((.def_220 (and .def_219 .def_217))) (let ((.def_221 (and .def_220 .def_42))) (let ((.def_222 (not .def_221))) (let ((.def_223 (not .def_220))) (let ((.def_224 (and G146 .def_223))) (let ((.def_225 (not .def_224))) (let ((.def_226 (and .def_225 .def_222))) (let ((.def_227 (not .def_226))) (let ((.def_228 (and .def_227 .def_215))) (let ((.def_229 (not .def_228))) (let ((.def_230 (not .def_215))) (let ((.def_231 (and .def_226 .def_230))) (let ((.def_232 (not .def_231))) (let ((.def_233 (and .def_232 .def_229))) (let ((.def_234 (not .def_233))) (let ((.def_235 (and G234 G221 .def_5))) (let ((.def_236 (and G137 .def_235))) (let ((.def_237 (not .def_236))) (let ((.def_238 (not .def_235))) (let ((.def_239 (and .def_238 .def_63))) (let ((.def_240 (not .def_239))) (let ((.def_241 (and .def_240 .def_237))) (let ((.def_242 (not .def_241))) (let ((.def_243 (and .def_242 .def_234))) (let ((.def_244 (not .def_243))) (let ((.def_245 (and .def_241 .def_233))) (let ((.def_246 (not .def_245))) (let ((.def_247 (and .def_246 .def_244))) (let ((.def_248 (not .def_247))) (let ((.def_249 (and .def_248 .def_91))) (let ((.def_250 (not .def_249))) (let ((.def_251 (and .def_101 G217))) (let ((.def_252 (and .def_251 .def_250))) (let ((.def_253 (not .def_252))) (let ((.def_254 (not .def_251))) (let ((.def_255 (and .def_254 .def_249))) (let ((.def_256 (not .def_255))) (let ((.def_257 (and .def_256 .def_253))) (let ((.def_258 (and G101 .def_6))) (let ((.def_259 (not .def_258))) (let ((.def_260 (and .def_3 .def_7))) (let ((.def_261 (not .def_260))) (let ((.def_262 (and .def_261 .def_259))) (let ((.def_263 (not .def_262))) (let ((.def_264 (and .def_112 G119))) (let ((.def_265 (not .def_264))) (let ((.def_266 (and .def_111 .def_265))) (let ((.def_267 (and .def_119 .def_266))) (let ((.def_268 (not .def_267))) (let ((.def_269 (not .def_266))) (let ((.def_270 (and .def_269 G113))) (let ((.def_271 (not .def_270))) (let ((.def_272 (and .def_271 .def_268))) (let ((.def_273 (and .def_163 .def_76))) (let ((.def_274 (not .def_273))) (let ((.def_275 (and .def_77 .def_166))) (let ((.def_276 (not .def_275))) (let ((.def_277 (and .def_276 .def_274))) (let ((.def_278 (and .def_277 .def_272))) (let ((.def_279 (not .def_278))) (let ((.def_280 (not .def_272))) (let ((.def_281 (not .def_277))) (let ((.def_282 (and .def_281 .def_280))) (let ((.def_283 (not .def_282))) (let ((.def_284 (and .def_283 .def_279))) (let ((.def_285 (and .def_284 .def_263))) (let ((.def_286 (not .def_285))) (let ((.def_287 (not .def_284))) (let ((.def_288 (and .def_262 .def_287))) (let ((.def_289 (not .def_288))) (let ((.def_290 (and .def_289 .def_286))) (let ((.def_291 (not .def_290))) (let ((.def_292 (and .def_91 .def_291))) (let ((.def_293 (not .def_292))) (let ((.def_294 (and G472 .def_293))) (let ((.def_295 (not .def_294))) (let ((.def_296 (not G472))) (let ((.def_297 (and .def_296 .def_292))) (let ((.def_298 (not .def_297))) (let ((.def_299 (and .def_298 .def_295))) (let ((.def_300 (not .def_299))) (let ((.def_301 (and .def_300 .def_257))) (let ((.def_302 (and .def_42 .def_220))) (let ((.def_303 (not .def_302))) (let ((.def_304 (and .def_225 .def_303))) (let ((.def_305 (and .def_5 G214 .def_4))) (let ((.def_306 (and G143 .def_305))) (let ((.def_307 (not .def_306))) (let ((.def_308 (not .def_305))) (let ((.def_309 (and .def_45 .def_308))) (let ((.def_310 (not .def_309))) (let ((.def_311 (and .def_310 .def_307))) (let ((.def_312 (and .def_311 .def_70))) (let ((.def_313 (not .def_312))) (let ((.def_314 (not .def_311))) (let ((.def_315 (and .def_314 G131))) (let ((.def_316 (not .def_315))) (let ((.def_317 (and .def_316 .def_313))) (let ((.def_318 (not .def_317))) (let ((.def_319 (and .def_318 .def_304))) (let ((.def_320 (not .def_319))) (let ((.def_321 (not .def_304))) (let ((.def_322 (and .def_321 .def_317))) (let ((.def_323 (not .def_322))) (let ((.def_324 (and .def_323 .def_320))) (let ((.def_325 (and G122 .def_119))) (let ((.def_326 (not .def_325))) (let ((.def_327 (and .def_143 G113))) (let ((.def_328 (not .def_327))) (let ((.def_329 (and .def_328 .def_326))) (let ((.def_330 (and .def_329 .def_31))) (let ((.def_331 (not .def_330))) (let ((.def_332 (not .def_329))) (let ((.def_333 (and G104 .def_332))) (let ((.def_334 (not .def_333))) (let ((.def_335 (and .def_334 .def_331))) (let ((.def_336 (not .def_335))) (let ((.def_337 (and .def_336 .def_324))) (let ((.def_338 (not .def_337))) (let ((.def_339 (not .def_324))) (let ((.def_340 (and .def_335 .def_339))) (let ((.def_341 (not .def_340))) (let ((.def_342 (and .def_341 .def_338))) (let ((.def_343 (not .def_342))) (let ((.def_344 (and .def_91 .def_343))) (let ((.def_345 (not G475))) (let ((.def_346 (and .def_345 .def_344))) (let ((.def_347 (not .def_346))) (let ((.def_348 (not .def_344))) (let ((.def_349 (and .def_348 G475))) (let ((.def_350 (not .def_349))) (let ((.def_351 (and .def_350 .def_347))) (let ((.def_352 (not .def_351))) (let ((.def_353 (and .def_5 G234 G217))) (let ((.def_354 (not .def_353))) (let ((.def_355 (and G116 .def_143))) (let ((.def_356 (not .def_355))) (let ((.def_357 (and .def_112 G122))) (let ((.def_358 (not .def_357))) (let ((.def_359 (and .def_358 .def_356))) (let ((.def_360 (not .def_359))) (let ((.def_361 (and .def_360 G107))) (let ((.def_362 (not .def_361))) (let ((.def_363 (and .def_359 .def_28))) (let ((.def_364 (not .def_363))) (let ((.def_365 (and .def_364 .def_362))) (let ((.def_366 (and .def_49 G143))) (let ((.def_367 (not .def_366))) (let ((.def_368 (and .def_45 G128))) (let ((.def_369 (not .def_368))) (let ((.def_370 (and .def_369 .def_367))) (let ((.def_371 (and .def_370 .def_66))) (let ((.def_372 (not .def_371))) (let ((.def_373 (not .def_370))) (let ((.def_374 (and G134 .def_373))) (let ((.def_375 (not .def_374))) (let ((.def_376 (and .def_375 .def_372))) (let ((.def_377 (not .def_376))) (let ((.def_378 (and .def_377 .def_365))) (let ((.def_379 (not .def_378))) (let ((.def_380 (not .def_365))) (let ((.def_381 (and .def_380 .def_376))) (let ((.def_382 (not .def_381))) (let ((.def_383 (and .def_382 .def_379))) (let ((.def_384 (not .def_383))) (let ((.def_385 (and .def_384 .def_354))) (let ((.def_386 (not .def_385))) (let ((.def_387 (and .def_383 .def_353))) (let ((.def_388 (not .def_387))) (let ((.def_389 (and .def_388 .def_386))) (let ((.def_390 (not .def_389))) (let ((.def_391 (and .def_91 .def_390))) (let ((.def_392 (not G478))) (let ((.def_393 (and .def_392 .def_391))) (let ((.def_394 (not .def_393))) (let ((.def_395 (not .def_391))) (let ((.def_396 (and .def_395 G478))) (let ((.def_397 (not .def_396))) (let ((.def_398 (and .def_397 .def_394))) (let ((.def_399 (and .def_398 .def_352))) (let ((.def_400 (and .def_399 .def_301 .def_204 .def_195 .def_104))) (let ((.def_401 (not .def_400))) (let ((.def_402 (and .def_398 .def_351))) (let ((.def_403 (not .def_257))) (let ((.def_404 (and .def_300 .def_403))) (let ((.def_405 (and .def_404 .def_204 .def_195 .def_104 .def_402))) (let ((.def_406 (not .def_405))) (let ((.def_407 (not .def_99))) (let ((.def_408 (and .def_103 .def_407))) (let ((.def_409 (and .def_402 .def_301 .def_204 .def_195 .def_408))) (let ((.def_410 (not .def_409))) (let ((.def_411 (not .def_398))) (let ((.def_412 (and .def_351 .def_411))) (let ((.def_413 (and .def_299 .def_257))) (let ((.def_414 (and .def_413 .def_412 .def_204 .def_195 .def_408))) (let ((.def_415 (not .def_414))) (let ((.def_416 (and .def_299 .def_403))) (let ((.def_417 (and .def_402 .def_416 .def_204 .def_195 .def_408))) (let ((.def_418 (not .def_417))) (let ((.def_419 (and .def_413 .def_399 .def_204 .def_195 .def_408))) (let ((.def_420 (not .def_419))) (let ((.def_421 (and .def_411 .def_352))) (let ((.def_422 (and .def_413 .def_421 .def_204 .def_195 .def_104))) (let ((.def_423 (not .def_422))) (let ((.def_424 (and .def_301 .def_412 .def_204 .def_195 .def_104))) (let ((.def_425 (not .def_424))) (let ((.def_426 (and .def_425 .def_423 .def_420 .def_418 .def_415 .def_410 .def_406 .def_401))) (let ((.def_427 (and .def_108 .def_193))) (let ((.def_428 (not G900))) (let ((.def_429 (and .def_197 G953 G902 .def_428))) (let ((.def_430 (not .def_429))) (let ((.def_431 (and .def_430 .def_202))) (let ((.def_432 (not .def_431))) (let ((.def_433 (and .def_408 .def_301 .def_432 .def_412 .def_427))) (let ((.def_434 (not .def_433))) (let ((.def_435 (and .def_408 .def_404 .def_432 .def_427 .def_402))) (let ((.def_436 (not .def_435))) (let ((.def_437 (and .def_404 .def_432 .def_412 .def_195 .def_408))) (let ((.def_438 (not .def_437))) (let ((.def_439 (and .def_408 .def_404 .def_399 .def_432 .def_195))) (let ((.def_440 (not .def_439))) (let ((.def_441 (and .def_408 .def_399 .def_301 .def_432 .def_427))) (let ((.def_442 (not .def_441))) (let ((.def_443 (and .def_399 .def_432 .def_416 .def_195 .def_104))) (let ((.def_444 (not .def_443))) (let ((.def_445 (and .def_408 .def_399 .def_432 .def_416 .def_427))) (let ((.def_446 (not .def_445))) (let ((.def_447 (and .def_408 .def_421 .def_301 .def_432 .def_195))) (let ((.def_448 (not .def_447))) (let ((.def_449 (and .def_448 .def_446 .def_444 .def_442 .def_440 .def_438 .def_436 .def_434))) (let ((.def_450 (and .def_449 .def_426))) (let ((.def_451 (not .def_450))) (let ((.def_452 (and .def_451 G472 G902))) (let ((.def_453 (and .def_166 .def_77))) (let ((.def_454 (not .def_453))) (let ((.def_455 (and .def_454 .def_274))) (let ((.def_456 (and .def_455 .def_272))) (let ((.def_457 (not .def_456))) (let ((.def_458 (not .def_455))) (let ((.def_459 (and .def_280 .def_458))) (let ((.def_460 (not .def_459))) (let ((.def_461 (and .def_460 .def_457))) (let ((.def_462 (and .def_461 .def_452))) (let ((.def_463 (not .def_462))) (let ((.def_464 (not .def_452))) (let ((.def_465 (not .def_461))) (let ((.def_466 (and .def_465 .def_464))) (let ((.def_467 (not .def_466))) (let ((.def_468 (and .def_467 .def_463))) (let ((.def_469 (not .def_468))) (let ((.def_470 (and .def_469 .def_12))) (let ((.def_471 (not .def_470))) (let ((.def_472 (not .def_12))) (let ((.def_473 (and .def_468 .def_472))) (let ((.def_474 (not .def_473))) (let ((.def_475 (and .def_474 .def_471))) (let ((.def_476 (not .def_475))) (let ((.def_477 (and .def_476 .def_2))) (let ((.def_478 (and G125 .def_166))) (let ((.def_479 (not .def_478))) (let ((.def_480 (and .def_479 .def_165))) (let ((.def_481 (and .def_170 .def_480))) (let ((.def_482 (not .def_481))) (let ((.def_483 (not .def_480))) (let ((.def_484 (and .def_483 .def_173))) (let ((.def_485 (not .def_484))) (let ((.def_486 (and .def_485 .def_482))) (let ((.def_487 (and .def_180 .def_486))) (let ((.def_488 (not .def_487))) (let ((.def_489 (not .def_486))) (let ((.def_490 (and .def_489 .def_153))) (let ((.def_491 (not .def_490))) (let ((.def_492 (and .def_491 .def_488))) (let ((.def_493 (and .def_451 G902 .def_187))) (let ((.def_494 (and .def_493 .def_492))) (let ((.def_495 (not .def_494))) (let ((.def_496 (not .def_493))) (let ((.def_497 (not .def_492))) (let ((.def_498 (and .def_497 .def_496))) (let ((.def_499 (not .def_498))) (let ((.def_500 (and .def_499 .def_495))) (let ((.def_501 (not .def_500))) (let ((.def_502 (and .def_501 .def_2))) (let ((.def_503 (not .def_502))) (let ((.def_504 (and .def_109 .def_405))) (let ((.def_505 (not .def_504))) (let ((.def_506 (and .def_406 G119))) (let ((.def_507 (not .def_506))) (let ((.def_508 (and .def_507 .def_505))) (let ((.def_509 (not .def_508))) (let ((.def_510 (and G125 .def_444))) (let ((.def_511 (not .def_510))) (let ((.def_512 (and .def_154 .def_443))) (let ((.def_513 (not .def_512))) (let ((.def_514 (and .def_513 .def_511))) (let ((.def_515 (not .def_514))) (let ((.def_516 (and .def_410 G101))) (let ((.def_517 (not .def_516))) (let ((.def_518 (and .def_3 .def_409))) (let ((.def_519 (not .def_518))) (let ((.def_520 (and .def_519 .def_517))) (let ((.def_521 (and .def_119 .def_400))) (let ((.def_522 (not .def_521))) (let ((.def_523 (and G113 .def_401))) (let ((.def_524 (not .def_523))) (let ((.def_525 (and .def_524 .def_522))) (let ((.def_526 (not .def_525))) (let ((.def_527 (and .def_414 .def_28))) (let ((.def_528 (not .def_527))) (let ((.def_529 (and G107 .def_415))) (let ((.def_530 (not .def_529))) (let ((.def_531 (and .def_530 .def_528))) (let ((.def_532 (not .def_531))) (let ((.def_533 (and .def_424 .def_112))) (let ((.def_534 (not .def_533))) (let ((.def_535 (and G116 .def_425))) (let ((.def_536 (not .def_535))) (let ((.def_537 (and .def_536 .def_534))) (let ((.def_538 (and G224 G898))) (let ((.def_539 (not .def_538))) (let ((.def_540 (and .def_539 G953))) (let ((.def_541 (and .def_136 .def_137))) (let ((.def_542 (not .def_541))) (let ((.def_543 (and .def_542 .def_135))) (let ((.def_544 (and .def_146 .def_543))) (let ((.def_545 (not .def_544))) (let ((.def_546 (not .def_543))) (let ((.def_547 (and .def_546 .def_150))) (let ((.def_548 (not .def_547))) (let ((.def_549 (and .def_548 .def_545))) (let ((.def_550 (and .def_198 G953))) (let ((.def_551 (not .def_550))) (let ((.def_552 (and .def_551 .def_549))) (let ((.def_553 (not .def_552))) (let ((.def_554 (not .def_426))) (let ((.def_555 (and .def_5 .def_554))) (let ((.def_556 (and .def_555 .def_553))) (let ((.def_557 (not .def_556))) (let ((.def_558 (not .def_555))) (let ((.def_559 (and .def_558 .def_552))) (let ((.def_560 (not .def_559))) (let ((.def_561 (and .def_560 .def_557))) (let ((.def_562 (and .def_561 .def_540))) (let ((.def_563 (not .def_562))) (let ((.def_564 (not .def_540))) (let ((.def_565 (not .def_561))) (let ((.def_566 (and .def_565 .def_564))) (let ((.def_567 (not .def_566))) (let ((.def_568 (and .def_567 .def_563))) (let ((.def_569 (not .def_568))) (let ((.def_570 (and .def_49 .def_437))) (let ((.def_571 (not .def_570))) (let ((.def_572 (and .def_438 G128))) (let ((.def_573 (not .def_572))) (let ((.def_574 (and .def_573 .def_571))) (let ((.def_575 (and .def_16 G140))) (let ((.def_576 (not .def_575))) (let ((.def_577 (and .def_576 .def_15))) (let ((.def_578 (and .def_577 .def_20))) (let ((.def_579 (not .def_578))) (let ((.def_580 (not .def_577))) (let ((.def_581 (and .def_580 .def_24))) (let ((.def_582 (not .def_581))) (let ((.def_583 (and .def_582 .def_579))) (let ((.def_584 (and .def_55 .def_40))) (let ((.def_585 (not .def_584))) (let ((.def_586 (and .def_41 .def_56))) (let ((.def_587 (not .def_586))) (let ((.def_588 (and .def_587 .def_585))) (let ((.def_589 (not .def_588))) (let ((.def_590 (and .def_589 .def_77))) (let ((.def_591 (not .def_590))) (let ((.def_592 (and .def_588 .def_76))) (let ((.def_593 (not .def_592))) (let ((.def_594 (and .def_593 .def_591))) (let ((.def_595 (and .def_594 .def_583))) (let ((.def_596 (not .def_595))) (let ((.def_597 (not .def_583))) (let ((.def_598 (not .def_594))) (let ((.def_599 (and .def_598 .def_597))) (let ((.def_600 (not .def_599))) (let ((.def_601 (and .def_600 .def_596))) (let ((.def_602 (and .def_451 G902 G469))) (let ((.def_603 (and .def_602 .def_601))) (let ((.def_604 (not .def_603))) (let ((.def_605 (not .def_601))) (let ((.def_606 (not .def_602))) (let ((.def_607 (and .def_606 .def_605))) (let ((.def_608 (not .def_607))) (let ((.def_609 (and .def_608 .def_604))) (let ((.def_610 (not .def_609))) (let ((.def_611 (and .def_610 .def_2))) (let ((.def_612 (not .def_611))) (let ((.def_613 (and G900 G227))) (let ((.def_614 (not .def_613))) (let ((.def_615 (and G953 .def_614))) (let ((.def_616 (and G125 .def_13))) (let ((.def_617 (not .def_616))) (let ((.def_618 (and .def_217 .def_617))) (let ((.def_619 (and G137 .def_66))) (let ((.def_620 (not .def_619))) (let ((.def_621 (and .def_620 .def_65))) (let ((.def_622 (not .def_621))) (let ((.def_623 (and .def_622 G131))) (let ((.def_624 (not .def_623))) (let ((.def_625 (and .def_70 .def_621))) (let ((.def_626 (not .def_625))) (let ((.def_627 (and .def_626 .def_624))) (let ((.def_628 (and .def_627 .def_55))) (let ((.def_629 (not .def_628))) (let ((.def_630 (not .def_627))) (let ((.def_631 (and .def_56 .def_630))) (let ((.def_632 (not .def_631))) (let ((.def_633 (and .def_632 .def_629))) (let ((.def_634 (and .def_633 .def_618))) (let ((.def_635 (not .def_634))) (let ((.def_636 (not .def_618))) (let ((.def_637 (not .def_633))) (let ((.def_638 (and .def_637 .def_636))) (let ((.def_639 (not .def_638))) (let ((.def_640 (and .def_639 .def_635))) (let ((.def_641 (and G953 .def_428))) (let ((.def_642 (not .def_641))) (let ((.def_643 (and .def_642 .def_640))) (let ((.def_644 (not .def_643))) (let ((.def_645 (not .def_449))) (let ((.def_646 (and .def_645 .def_5))) (let ((.def_647 (and .def_646 .def_644))) (let ((.def_648 (not .def_647))) (let ((.def_649 (not .def_646))) (let ((.def_650 (and .def_649 .def_643))) (let ((.def_651 (not .def_650))) (let ((.def_652 (and .def_651 .def_648))) (let ((.def_653 (and .def_652 .def_615))) (let ((.def_654 (not .def_653))) (let ((.def_655 (not .def_615))) (let ((.def_656 (not .def_652))) (let ((.def_657 (and .def_656 .def_655))) (let ((.def_658 (not .def_657))) (let ((.def_659 (and .def_658 .def_654))) (let ((.def_660 (and .def_441 .def_70))) (let ((.def_661 (not .def_660))) (let ((.def_662 (and .def_442 G131))) (let ((.def_663 (not .def_662))) (let ((.def_664 (and .def_663 .def_661))) (let ((.def_665 (not .def_664))) (let ((.def_666 (and .def_451 G902 G478))) (let ((.def_667 (and .def_389 .def_666))) (let ((.def_668 (not .def_667))) (let ((.def_669 (not .def_666))) (let ((.def_670 (and .def_390 .def_669))) (let ((.def_671 (not .def_670))) (let ((.def_672 (and .def_671 .def_668))) (let ((.def_673 (not .def_672))) (let ((.def_674 (and .def_2 .def_673))) (let ((.def_675 (and .def_143 .def_422))) (let ((.def_676 (not .def_675))) (let ((.def_677 (and .def_423 G122))) (let ((.def_678 (not .def_677))) (let ((.def_679 (and .def_678 .def_676))) (let ((.def_680 (and .def_189 .def_192))) (let ((.def_681 (and .def_95 .def_98))) (let ((.def_682 (and G475 .def_348))) (let ((.def_683 (not .def_682))) (let ((.def_684 (and .def_347 .def_683))) (let ((.def_685 (and .def_391 .def_392))) (let ((.def_686 (not .def_685))) (let ((.def_687 (and .def_686 .def_397))) (let ((.def_688 (and .def_253 .def_256))) (let ((.def_689 (and .def_292 .def_296))) (let ((.def_690 (not .def_689))) (let ((.def_691 (and .def_293 G472))) (let ((.def_692 (not .def_691))) (let ((.def_693 (and .def_692 .def_690))) (let ((.def_694 (and .def_693 .def_108 .def_688 .def_687 .def_684 .def_103 .def_681 .def_680))) (let ((.def_695 (not .def_694))) (let ((.def_696 (and .def_5 .def_0 .def_695))) (let ((.def_697 (and .def_201 .def_408 .def_413 .def_427 .def_402))) (let ((.def_698 (not .def_697))) (let ((.def_699 (and .def_201 .def_301 .def_427 .def_402 .def_104))) (let ((.def_700 (not .def_699))) (let ((.def_701 (and .def_201 .def_413 .def_399 .def_427 .def_104))) (let ((.def_702 (not .def_701))) (let ((.def_703 (and .def_201 .def_413 .def_412 .def_427 .def_104))) (let ((.def_704 (not .def_703))) (let ((.def_705 (and .def_201 .def_413 .def_195 .def_104 .def_402))) (let ((.def_706 (not .def_705))) (let ((.def_707 (and .def_107 .def_193))) (let ((.def_708 (and .def_201 .def_413 .def_104 .def_402 .def_707))) (let ((.def_709 (not .def_708))) (let ((.def_710 (and .def_99 .def_102))) (let ((.def_711 (and .def_201 .def_413 .def_710 .def_427 .def_402))) (let ((.def_712 (not .def_711))) (let ((.def_713 (and .def_201 .def_416 .def_427 .def_402 .def_104))) (let ((.def_714 (not .def_713))) (let ((.def_715 (and .def_714 .def_712 .def_709 .def_706 .def_704 .def_702 .def_700 .def_698))) (let ((.def_716 (and .def_449 .def_715 .def_426))) (let ((.def_717 (and .def_5 .def_716 .def_695 G952))) (let ((.def_718 (or .def_717 .def_696))) (let ((.def_719 (not .def_718))) (let ((.def_720 (and .def_447 .def_45))) (let ((.def_721 (not .def_720))) (let ((.def_722 (and G143 .def_448))) (let ((.def_723 (not .def_722))) (let ((.def_724 (and .def_723 .def_721))) (let ((.def_725 (not .def_724))) (let ((.def_726 (and .def_725 .def_719 .def_679 .def_674 .def_665 .def_659 .def_612 .def_574 .def_569 .def_537 .def_532 .def_526 .def_520 .def_515 .def_509 .def_503 .def_477))) .def_726))))))))))))))))))))))))))))))))))))))))))))))))))))))))))))))))))))))))))))))))))))))))))))))))))))))))))))))))))))))))))))))))))))))))))))))))))))))))))))))))))))))))))))))))))))))))))))))))))))))))))))))))))))))))))))))))))))))))))))))))))))))))))))))))))))))))))))))))))))))))))))))))))))))))))))))))))))))))))))))))))))))))))))))))))))))))))))))))))))))))))))))))))))))))))))))))))))))))))))))))))))))))))))))))))))))))))))))))))))))))))))))))))))))))))))))))))))))))))))))))))))))))))))))))))))))))))))))))))))))))))))))))))))))))))))))))))))))))))))))))))))))))))))))))))))))))))))))))))))))))))))))))))))))))))))))))))))))))))))))))))))))))))))))))))))))))))))))))))))))))))))))))))))))))))))))))))))))))))))))))))))))))
(check-sat)
